s td 28 8 35
b 1 15 35
b 2 12 20
b 3 19 28
b 4 9 31
b 5 6 12 19
b 6 8 27 30
b 7 9 19 23
b 8 17 21 22
b 9 26 27 30
b 10 2 13 35
b 11 14 18 22 26
b 12 16 21 24 33
b 13 1 3 4 13 19 21 29 32
b 14 3 4 12 13 19 21 29 32
b 15 3 4 7 12 13 21 32
b 16 5 7 12 13 21 32
b 17 5 12 13 21 25
b 18 2 5 13 25
b 19 5 11 12 25
b 20 3 10 12 13 29
b 21 1 4 13 19 21 26 29 32
b 22 1 4 13 21 22 26
b 23 1 4 14 22 26
b 24 4 13 21 26 29 33
b 25 4 16 21 29 33
b 26 1 19 26 30
b 27 19 26 32 34
b 28 19 21 23 29
1 10
2 14
3 13
4 7
5 14
6 9
7 28
8 22
9 26
10 18
11 23
12 25
13 14
13 21
13 28
14 15
14 20
15 16
16 17
17 18
17 19
21 22
21 24
21 26
21 27
22 23
24 25
